Route #1: 1 15 33 8 11 19 5 12 42 1 
Route #2: 1 20 21 17 28 9 45 6 13 4 38 36 3 1 
Route #3: 1 1 40 34 31 29 41 27 24 1 
Route #4: 1 16 35 10 7 22 32 1 
Route #5: 1 18 25 44 37 2 1 
Route #6: 1 39 30 26 43 14 1 
Route #7: 1 23 1 

Cost 1370.16
Time 0.3565


 * Another infos *

 Iterations: 46 Time: 0.3565 sec - 0.0059 min - 0.0001 horas
0.0000 h 0.0059 min
Problem dimension: 46
